3	24	1	8	29	100	0	0	0	0	0	0
800	1	0	0	0	0	0	0	0	0	0	0
800	1	0	0	0	0	0	0	0	0	0	0
800	1	0	0	0	0	0	0	0	0	0	0
100	1	0	79.69	0.38	1	0	0	0	0	0	0
100	1	0	79.69	0.38	1	0	0	0	0	0	0
100	1	0	79.69	0.38	1	0	0	0	0	0	0
100	1	0	79.69	0.38	1	0	0	0	0	0	0
100	1	0	79.69	0.38	1	0	0	0	0	0	0
100	1	0	79.69	0.38	1	0	0	0	0	0	0
100	1	0	79.69	0.38	1	0	0	0	0	0	0
100	1	0	79.69	0.38	1	0	0	0	0	0	0
100	1	0	79.69	0.38	1	0	0	0	0	0	0
100	1	0	79.69	0.38	1	0	0	0	0	0	0
100	1	0	79.69	0.38	1	0	0	0	0	0	0
100	1	0	79.69	0.38	1	0	0	0	0	0	0
100	1	0	79.69	0.38	1	0	0	0	0	0	0
100	1	0	79.69	0.38	1	0	0	0	0	0	0
100	1	0	79.69	0.38	1	0	0	0	0	0	0
100	1	0	79.69	0.38	1	0	0	0	0	0	0
100	1	0	79.69	0.38	1	0	0	0	0	0	0
100	1	0	79.69	0.38	1	0	0	0	0	0	0
100	1	0	79.69	0.38	1	0	0	0	0	0	0
100	1	0	79.69	0.38	1	0	0	0	0	0	0
100	1	0	79.69	0.38	1	0	0	0	0	0	0
100	1	0	79.69	0.38	1	0	0	0	0	0	0
100	1	0	79.69	0.38	1	0	0	0	0	0	0
100	1	0	79.69	0.38	1	0	0	0	0	0	0
50	150	0	0	0	0	240	0	0	99999	0	0
25	25	0	0	0	0	240	0	0	99999	0	0
50	25	0	0	0	0	240	0	0	99999	0	0
75	25	0	0	0	0	240	0	0	99999	0	0
25	50	0	0	0	0	240	0	0	99999	0	0
75	50	0	0	0	0	240	0	0	99999	0	0
25	75	0	0	0	0	240	0	0	99999	0	0
50	75	0	0	0	0	240	0	0	99999	0	0
75	75	0	0	0	0	240	0	0	99999	0	0
25	25	0	0	0	0	240	0	0	0	0	0
50	25	0	0	0	0	240	0	0	0	0	0
75	25	0	0	0	0	240	0	0	0	0	0
25	50	0	0	0	0	240	0	0	0	0	0
75	50	0	0	0	0	240	0	0	0	0	0
25	75	0	0	0	0	240	0	0	0	0	0
50	75	0	0	0	0	240	0	0	0	0	0
75	75	0	0	0	0	240	0	0	0	0	0
40      50      0       0       0       0       240     0       0       0       0       0
73      52      0       0       0       0       240     0       0       0       0       0
90      55      0       0       0       0       240     0       0       0       0       0
55      79      0       0       0       0       240     0       0       0       0       0
69      89      0       0       0       0       240     0       0       0       0       0
32      80      0       0       0       0       240     0       0       0       0       0
39      96      0       0       0       0       240     0       0       0       0       0
23      80      0       0       0       0       240     0       0       0       0       0
4	83	0	0	0	0	240	0	0	0	0	0
18	58	0	0	0	0	240	0	0	0	0	0
1	56	0	0	0	0	240	0	0	0	0	0
13	31	0	0	0	0	240	0	0	0	0	0
-5	38	0	0	0	0	240	0	0	0	0	0
26	37	0	0	0	0	240	0	0	0	0	0
28	13	0	0	0	0	240	0	0	0	0	0
39	31	0	0	0	0	240	0	0	0	0	0
48	11	0	0	0	0	240	0	0	0	0	0
59	17	0	0	0	0	240	0	0	0	0	0
73	23	0	0	0	0	240	0	0	0	0	0
74	32	0	0	0	0	240	0	0	0	0	0
90	44	0	0	0	0	240	0	0	0	0	0
25	85	20	6	14	228	292	10	0	0	0	0
22	75	30	9	21	145	255	10	0	0	0	0
22	85	10	3	7	141	291	10	0	0	0	0
20	80	40	10	30	148	206	10	0	0	0	0
20	85	20	5	15	169	290	10	0	0	0	0
18	75	20	5	15	164	278	10	0	0	0	0
15	75	20	4	16	188	248	10	0	0	0	0
15	80	10	2	8	165	257	10	0	0	0	0
10	35	20	6	14	186	292	10	0	0	0	0
10	40	30	8	22	165	245	10	0	0	0	0
8	40	40	8	32	157	247	10	0	0	0	0
8	45	20	4	16	196	258	10	0	0	0	0
5	35	10	1	9	140	231	10	0	0	0	0
5	45	10	1	9	137	235	10	0	0	0	0
2	40	20	1	19	182	256	10	0	0	0	0
0	40	20	0	20	186	289	10	0	0	0	0
0	45	20	0	20	212	290	10	0	0	0	0
44	5	20	2	18	154	237	10	0	0	0	0
42	10	40	10	30	149	247	10	0	0	0	0
42	15	10	4	6	201	269	10	0	0	0	0
40	5	10	1	9	176	286	10	0	0	0	0
40	15	40	15	25	177	267	10	0	0	0	0
38	5	30	4	26	154	285	10	0	0	0	0
38	15	10	4	6	183	265	10	0	0	0	0
35	5	20	3	17	185	269	10	0	0	0	0
95	30	30	9	21	176	266	10	0	0	0	0
95	35	20	7	13	176	273	10	0	0	0	0
92	30	10	3	7	173	275	10	0	0	0	0
90	35	10	4	6	193	278	10	0	0	0	0
88	30	10	3	7	197	279	10	0	0	0	0
88	35	20	8	12	169	280	10	0	0	0	0
87	30	10	3	7	168	258	10	0	0	0	0
85	25	10	3	7	167	279	10	0	0	0	0
85	35	30	12	18	186	283	10	0	0	0	0
67	85	20	16	4	160	286	10	0	0	0	0
65	85	40	31	9	158	252	10	0	0	0	0
65	82	10	8	2	157	290	10	0	0	0	0
62	80	30	23	7	151	261	10	0	0	0	0
60	80	10	8	2	157	275	10	0	0	0	0
60	85	30	21	9	217	290	10	0	0	0	0
58	75	20	15	5	177	275	10	0	0	0	0
55	80	10	7	3	135	197	10	0	0	0	0
55	85	20	13	7	157	289	10	0	0	0	0
55	82	10	7	3	137	239	10	0	0	0	0
20	82	10	2	8	139	275	10	0	0	0	0
18	80	10	2	8	191	293	10	0	0	0	0
2	45	10	0	10	140	249	10	0	0	0	0
42	5	10	1	9	180	285	10	0	0	0	0
42	12	10	3	7	155	247	10	0	0	0	0
72	35	30	15	15	226	295	10	0	0	0	0
55	20	19	7	12	199	297	10	0	0	0	0
25	30	3	3	0	126	246	10	0	0	0	0
20	50	5	2	3	121	217	10	0	0	0	0
55	60	16	15	1	221	312	10	0	0	0	0
30	60	16	8	8	116	245	10	0	0	0	0
50	35	19	13	6	192	306	10	0	0	0	0
30	25	23	19	4	128	216	10	0	0	0	0
15	10	20	13	7	157	245	10	0	0	0	0
10	20	19	10	9	151	243	10	0	0	0	0
15	60	17	4	13	204	304	10	0	0	0	0
45	65	9	6	3	148	315	10	0	0	0	0
65	35	3	2	1	131	224	10	0	0	0	0
65	20	6	2	4	141	265	10	0	0	0	0
45	30	17	11	6	143	219	10	0	0	0	0
35	40	16	14	2	113	190	10	0	0	0	0
41	37	16	14	2	115	227	10	0	0	0	0
64	42	9	6	3	208	305	10	0	0	0	0
40	60	21	14	7	160	270	10	0	0	0	0
31	52	27	16	11	111	205	10	0	0	0	0
35	69	23	12	11	162	236	10	0	0	0	0
65	55	14	12	2	134	198	10	0	0	0	0
63	65	8	8	0	167	277	10	0	0	0	0
2	60	5	0	5	180	242	10	0	0	0	0
20	20	8	8	0	199	271	10	0	0	0	0
5	5	16	16	0	166	240	10	0	0	0	0
60	12	31	6	25	156	253	10	0	0	0	0
23	3	7	1	6	166	269	10	0	0	0	0
8	56	27	4	23	134	269	10	0	0	0	0
6	68	30	3	27	140	232	10	0	0	0	0
47	47	13	13	0	109	231	10	0	0	0	0
49	58	10	8	2	232	314	10	0	0	0	0
27	43	9	6	3	191	269	10	0	0	0	0
37	31	14	12	2	185	283	10	0	0	0	0
57	29	18	9	9	139	239	10	0	0	0	0
63	23	2	1	1	137	281	10	0	0	0	0
21	24	28	25	3	240	292	10	0	0	0	0
12	24	13	7	6	159	189	10	0	0	0	0
24	58	19	8	11	156	264	10	0	0	0	0
67	5	25	2	23	168	278	10	0	0	0	0
37	47	6	5	1	222	300	10	0	0	0	0
49	42	13	11	2	134	250	10	0	0	0	0
53	43	14	11	3	184	316	10	0	0	0	0
61	52	3	3	0	131	189	10	0	0	0	0
57	48	23	19	4	231	313	10	0	0	0	0
56	37	6	4	2	122	245	10	0	0	0	0
55	54	26	26	0	259	315	10	0	0	0	0
4	18	35	8	27	224	276	10	0	0	0	0
26	52	9	5	4	216	302	10	0	0	0	0
26	35	15	11	4	133	201	10	0	0	0	0
31	67	3	1	2	121	144	10	0	0	0	0
